\ENCODING=ISO-8859-1
\Problem name: 

Maximize
 obj: 0.333333343267441 V_0 + 0.333333343267441 V_1 + 0.333333343267441 V_2
Subject To
 c1:  - Q_0_0 + 0.208278561383486 V_0 + 0.741721424460411 V_1 + r_0_0  = 0
 c2:  - Q_1_0 + 0.23113024905324 V_1 + 0.718869736790657 V_2 + r_1_0  = 0
 c3:  - Q_2_0 + 0.615603965520859 V_1 + 0.334396034479141 V_2 + r_2_0  = 0
 c4:  - Q_0_1 + 0.151024853438139 V_0 + 0.798975104093552 V_2 + r_0_1  = 0
 c5:  - Q_1_1 + 0.533269521594048 V_0 + 0.416730478405952 V_2 + r_1_1  = 0
 c6:  - Q_2_1 + 0.692231971025467 V_0 + 0.257768085598946 V_1 + r_2_1  = 0
 c7:  - Q_0_0 + V_0 >= 0
 c8:  - Q_1_0 + V_1 >= 0
 c9:  - Q_2_0 + V_2 >= 0
 c10: - Q_0_1 + V_0 >= 0
 c11: - Q_1_1 + V_1 >= 0
 c12: - Q_2_1 + V_2 >= 0
 c13: - Q_0_0 + V_0 + 239.997991417714 I_0_0 <= 239.997991417714
 c14: - Q_1_0 + V_1 + 239.997996528132 I_1_0 <= 239.997996528132
 c15: - Q_2_0 + V_2 + 239.998001230481 I_2_0 <= 239.998001230481
 c16: - Q_0_1 + V_0 + 239.997989483378 I_0_1 <= 239.997989483378
 c17: - Q_1_1 + V_1 + 239.997996013486 I_1_1 <= 239.997996013486
 c18: - Q_2_1 + V_2 + 239.998005244622 I_2_1 <= 239.998005244622
 c19: I_0_0 + I_0_1  = 1
 c20: I_1_0 + I_1_1  = 1
 c21: I_2_0 + I_2_1  = 1
Bounds
      Q_0_0 Free
      Q_0_1 Free
      Q_1_0 Free
      Q_1_1 Free
      Q_2_0 Free
      Q_2_1 Free
      V_0 Free
      V_1 Free
      V_2 Free
 0 <= I_0_0 <= Inf
 0 <= I_0_1 <= Inf
 0 <= I_1_0 <= Inf
 0 <= I_1_1 <= Inf
 0 <= I_2_0 <= Inf
 0 <= I_2_1 <= Inf
-6 <= r_0_0 <= 6
-6 <= r_0_1 <= 6
-6 <= r_1_0 <= 6
-6 <= r_1_1 <= 6
-6 <= r_2_0 <= 6
-6 <= r_2_1 <= 6
Binaries
 I_0_0  I_0_1  I_1_0  I_1_1  I_2_0  I_2_1 
End
